
===== New CPLEX run =====
Instance: /home/yorig/tuner/mpils-tests/instances/miplib/medium-1/neos-1456979.mps
Config: /scratch/yorig/mpils-results-grid-seconds-10-no-mip-start/medium-1/2proc/seed-5/8_neos-1456979_seed-5_20260503_052435/iterated_local_search/run_2_worker_1/ils_config_944002969509894195.prm
========================

Selected objective sense:  MINIMIZE
Selected objective  name:  R6771
Selected RHS        name:  B
Selected bound      name:  BOUND
Version identifier: 22.1.2.0 | 2024-11-26 | 0edbb82fd
CPXPARAM_Threads                                 8
CPXPARAM_Parallel                                1
CPXPARAM_MIP_Cuts_Cliques                        1
CPXPARAM_MIP_Cuts_FlowCovers                     -1
CPXPARAM_MIP_Cuts_Implied                        -1
CPXPARAM_MIP_Cuts_GUBCovers                      2
CPXPARAM_MIP_Limits_GomoryCand                   800
CPXPARAM_MIP_Cuts_Gomory                         1
CPXPARAM_MIP_Cuts_PathCut                        -1
CPXPARAM_MIP_Cuts_MIRCut                         2
CPXPARAM_MIP_Cuts_Disjunctive                    -1
CPXPARAM_Emphasis_MIP                            5
CPXPARAM_TimeLimit                               10
CPXPARAM_MIP_Limits_ProbeTime                    60
1 of 4 MIP starts provided solutions.
MIP start 'm1' defined initial solution with objective 193.0000.
Tried aggregator 1 time.
MIP Presolve eliminated 175 rows and 10 columns.
MIP Presolve modified 4950 coefficients.
Reduced MIP has 6595 rows, 4595 columns, and 35740 nonzeros.
Reduced MIP has 4245 binaries, 175 generals, 0 SOSs, and 0 indicators.
Presolve time = 0.01 sec. (15.92 ticks)
Probing time = 0.03 sec. (33.51 ticks)
Tried aggregator 1 time.
Detecting symmetries...
MIP Presolve modified 90 coefficients.
Reduced MIP has 6595 rows, 4595 columns, and 35740 nonzeros.
Reduced MIP has 4245 binaries, 175 generals, 0 SOSs, and 0 indicators.
Presolve time = 0.02 sec. (27.11 ticks)
Probing time = 0.04 sec. (33.23 ticks)
Clique table members: 20433.
MIP emphasis: heuristic.
MIP search method: dynamic search.
Parallel mode: deterministic, using up to 8 threads.
Root relaxation solution time = 0.03 sec. (38.64 ticks)

        Nodes                                         Cuts/
   Node  Left     Objective  IInf  Best Integer    Best Bound    ItCnt     Gap

*     0+    0                          193.0000        0.0000           100.00%
      0     0      154.0000   120      193.0000      154.0000      736   20.21%
*     0+    0                          191.0000      154.0000            19.37%
      0     0      154.0000   129      191.0000      Cuts: 77      897   19.37%
      0     0      154.0000   125      191.0000      Cuts: 66     1099   19.37%
      0     0      154.0000   134      191.0000     Cuts: 237     1330   19.37%
*     0+    0                          189.0000      154.0000            18.52%
      0     0  -1.00000e+75     0      189.0000      154.0000     1330   18.52%
*     0+    0                          187.0000      154.0000            17.65%
      0     2      154.0000    72      187.0000      154.0000     1331   17.65%
Elapsed time = 4.73 sec. (2368.84 ticks, tree = 0.02 MB, solutions = 4)
*    21+    1                          186.0000      154.0000            17.20%
     98    72      167.0000    77      186.0000      157.0000     4565   15.59%
    260   218      182.0000    94      186.0000      157.0000    11646   15.59%
    405   334      167.5229    93      186.0000      157.0000    19701   15.59%
    566   444      178.2373   117      186.0000      157.0000    26897   15.59%
    755   586      170.9081    43      186.0000      158.0000    40152   15.05%
    928   696      177.2069    78      186.0000      158.0000    45592   15.05%
   1043   844      183.6817    66      186.0000      159.0000    52713   14.52%
   1236   948      181.9254   110      186.0000      159.0000    58196   14.52%
   1414  1140      178.1205    94      186.0000      160.0000    68689   13.98%
*  2177+ 1736                          185.0000      160.5000            13.24%
   2204  1791      179.3464    82      185.0000      160.5000    96856   13.24%
Elapsed time = 9.18 sec. (5484.50 ticks, tree = 86.98 MB, solutions = 6)

GUB cover cuts applied:  0
Clique cuts applied:  1
Cover cuts applied:  16
Mixed integer rounding cuts applied:  409
Zero-half cuts applied:  20
Gomory fractional cuts applied:  9

Root node processing (before b&c):
  Real time             =    4.60 sec. (2366.08 ticks)
Parallel b&c, 8 threads:
  Real time             =    5.43 sec. (3722.69 ticks)
  Sync time (average)   =    2.01 sec.
  Wait time (average)   =    0.00 sec.
                          ------------
Total (root+branch&cut) =   10.03 sec. (6088.76 ticks)
Gap: 12.97%
Upper bound: 185
Lower bound: 161
End of CPLEX run. Time: 10.0287 seconds

===== New CPLEX run =====
Instance: /home/yorig/tuner/mpils-tests/instances/miplib/medium-1/neos-1456979.mps
Config: /scratch/yorig/mpils-results-grid-seconds-10-no-mip-start/medium-1/2proc/seed-5/8_neos-1456979_seed-5_20260503_052435/iterated_local_search/run_2_worker_1/ils_config_2803616190267920968.prm
========================

Selected objective sense:  MINIMIZE
Selected objective  name:  R6771
Selected RHS        name:  B
Selected bound      name:  BOUND
Version identifier: 22.1.2.0 | 2024-11-26 | 0edbb82fd
CPXPARAM_Threads                                 8
CPXPARAM_Parallel                                1
CPXPARAM_MIP_Cuts_Cliques                        1
CPXPARAM_MIP_Cuts_FlowCovers                     -1
CPXPARAM_MIP_Cuts_Implied                        -1
CPXPARAM_MIP_Cuts_GUBCovers                      2
CPXPARAM_MIP_Limits_GomoryCand                   800
CPXPARAM_MIP_Cuts_Gomory                         1
CPXPARAM_MIP_Cuts_MIRCut                         2
CPXPARAM_MIP_Cuts_Disjunctive                    -1
CPXPARAM_Emphasis_MIP                            5
CPXPARAM_TimeLimit                               10
CPXPARAM_MIP_Limits_ProbeTime                    60
1 of 4 MIP starts provided solutions.
MIP start 'm1' defined initial solution with objective 193.0000.
Tried aggregator 1 time.
MIP Presolve eliminated 175 rows and 10 columns.
MIP Presolve modified 4950 coefficients.
Reduced MIP has 6595 rows, 4595 columns, and 35740 nonzeros.
Reduced MIP has 4245 binaries, 175 generals, 0 SOSs, and 0 indicators.
Presolve time = 0.01 sec. (15.92 ticks)
Probing time = 0.03 sec. (33.51 ticks)
Tried aggregator 1 time.
Detecting symmetries...
MIP Presolve modified 90 coefficients.
Reduced MIP has 6595 rows, 4595 columns, and 35740 nonzeros.
Reduced MIP has 4245 binaries, 175 generals, 0 SOSs, and 0 indicators.
Presolve time = 0.02 sec. (27.11 ticks)
Probing time = 0.17 sec. (33.23 ticks)
Clique table members: 20433.
MIP emphasis: heuristic.
MIP search method: dynamic search.
Parallel mode: deterministic, using up to 8 threads.
Root relaxation solution time = 0.04 sec. (38.64 ticks)

        Nodes                                         Cuts/
   Node  Left     Objective  IInf  Best Integer    Best Bound    ItCnt     Gap

*     0+    0                          193.0000        0.0000           100.00%
      0     0      154.0000   120      193.0000      154.0000      736   20.21%
*     0+    0                          191.0000      154.0000            19.37%
      0     0      154.0000   129      191.0000      Cuts: 77      897   19.37%
      0     0      154.0000   125      191.0000      Cuts: 66     1099   19.37%
      0     0      154.0000   134      191.0000     Cuts: 237     1330   19.37%
*     0+    0                          189.0000      154.0000            18.52%
      0     0  -1.00000e+75     0      189.0000      154.0000     1330   18.52%
*     0+    0                          187.0000      154.0000            17.65%
      0     2      154.0000    72      187.0000      154.0000     1331   17.65%
Elapsed time = 4.91 sec. (2369.00 ticks, tree = 0.02 MB, solutions = 4)
*    21+    1                          186.0000      154.0000            17.20%
     98    72      167.0000    77      186.0000      157.0000     4565   15.59%
    260   218      182.0000    94      186.0000      157.0000    11646   15.59%
    405   334      167.5229    93      186.0000      157.0000    19701   15.59%
    566   444      178.2373   117      186.0000      157.0000    26897   15.59%
    755   586      170.9081    43      186.0000      158.0000    40152   15.05%
    928   696      177.2069    78      186.0000      158.0000    45592   15.05%
   1043   844      183.6817    66      186.0000      159.0000    52713   14.52%
   1236   948      181.9254   110      186.0000      159.0000    58196   14.52%
   1414  1140      178.1205    94      186.0000      160.0000    68689   13.98%
   2210  1791      179.3464    82      186.0000      160.5000    96856   13.71%
Elapsed time = 9.10 sec. (5484.66 ticks, tree = 86.98 MB, solutions = 5)

GUB cover cuts applied:  0
Clique cuts applied:  1
Cover cuts applied:  17
Mixed integer rounding cuts applied:  413
Zero-half cuts applied:  20
Gomory fractional cuts applied:  9

Root node processing (before b&c):
  Real time             =    4.89 sec. (2366.35 ticks)
Parallel b&c, 8 threads:
  Real time             =    5.11 sec. (4030.58 ticks)
  Sync time (average)   =    1.84 sec.
  Wait time (average)   =    0.00 sec.
                          ------------
Total (root+branch&cut) =   10.00 sec. (6396.93 ticks)
Gap: 13.35%
Upper bound: 186
Lower bound: 161.176
End of CPLEX run. Time: 10.0055 seconds

===== New CPLEX run =====
Instance: /home/yorig/tuner/mpils-tests/instances/miplib/medium-1/neos-1456979.mps
Config: /scratch/yorig/mpils-results-grid-seconds-10-no-mip-start/medium-1/2proc/seed-5/8_neos-1456979_seed-5_20260503_052435/iterated_local_search/run_2_worker_1/ils_config_5298667732821309846.prm
========================

Selected objective sense:  MINIMIZE
Selected objective  name:  R6771
Selected RHS        name:  B
Selected bound      name:  BOUND
Version identifier: 22.1.2.0 | 2024-11-26 | 0edbb82fd
CPXPARAM_Threads                                 8
CPXPARAM_Parallel                                1
CPXPARAM_MIP_Cuts_Cliques                        1
CPXPARAM_MIP_Cuts_FlowCovers                     -1
CPXPARAM_MIP_Cuts_Implied                        -1
CPXPARAM_MIP_Cuts_GUBCovers                      2
CPXPARAM_MIP_Limits_GomoryCand                   800
CPXPARAM_MIP_Cuts_Gomory                         1
CPXPARAM_MIP_Cuts_PathCut                        -1
CPXPARAM_MIP_Cuts_MIRCut                         2
CPXPARAM_MIP_Cuts_Disjunctive                    2
CPXPARAM_Emphasis_MIP                            5
CPXPARAM_TimeLimit                               10
CPXPARAM_MIP_Limits_ProbeTime                    60
1 of 4 MIP starts provided solutions.
MIP start 'm1' defined initial solution with objective 193.0000.
Tried aggregator 1 time.
MIP Presolve eliminated 175 rows and 10 columns.
MIP Presolve modified 4950 coefficients.
Reduced MIP has 6595 rows, 4595 columns, and 35740 nonzeros.
Reduced MIP has 4245 binaries, 175 generals, 0 SOSs, and 0 indicators.
Presolve time = 0.01 sec. (15.92 ticks)
Probing time = 0.12 sec. (33.51 ticks)
Tried aggregator 1 time.
Detecting symmetries...
MIP Presolve modified 90 coefficients.
Reduced MIP has 6595 rows, 4595 columns, and 35740 nonzeros.
Reduced MIP has 4245 binaries, 175 generals, 0 SOSs, and 0 indicators.
Presolve time = 0.02 sec. (27.11 ticks)
Probing time = 0.26 sec. (33.23 ticks)
Clique table members: 20433.
MIP emphasis: heuristic.
MIP search method: dynamic search.
Parallel mode: deterministic, using up to 8 threads.
Root relaxation solution time = 0.04 sec. (38.64 ticks)

        Nodes                                         Cuts/
   Node  Left     Objective  IInf  Best Integer    Best Bound    ItCnt     Gap

*     0+    0                          193.0000        0.0000           100.00%
      0     0      154.0000   120      193.0000      154.0000      736   20.21%
*     0+    0                          191.0000      154.0000            19.37%
      0     0      154.0000   129      191.0000      Cuts: 77      897   19.37%
      0     0      154.0000   125      191.0000      Cuts: 66     1099   19.37%
      0     0      154.0000   134      191.0000     Cuts: 237     1330   19.37%
*     0+    0                          189.0000      154.0000            18.52%
      0     0  -1.00000e+75     0      189.0000      154.0000     1330   18.52%
*     0+    0                          187.0000      154.0000            17.65%
      0     2      154.0000    72      187.0000      154.0000     1331   17.65%
Elapsed time = 4.78 sec. (2368.84 ticks, tree = 0.02 MB, solutions = 4)
*    21+    1                          186.0000      154.0000            17.20%
     98    72      167.0000    77      186.0000      157.0000     4565   15.59%
    260   218      182.0000    94      186.0000      157.0000    11646   15.59%
    405   334      167.5229    93      186.0000      157.0000    19701   15.59%
    566   444      178.2373   117      186.0000      157.0000    26897   15.59%
    755   586      170.9081    43      186.0000      158.0000    40152   15.05%
    928   696      177.2069    78      186.0000      158.0000    45592   15.05%
   1043   844      183.6817    66      186.0000      159.0000    52713   14.52%
   1236   948      181.9254   110      186.0000      159.0000    58196   14.52%
   1414  1140      178.1205    94      186.0000      160.0000    68689   13.98%
   2210  1791      179.3464    82      186.0000      160.5000    96856   13.71%
Elapsed time = 8.87 sec. (5484.50 ticks, tree = 86.98 MB, solutions = 5)
   2976  2392      178.5000    81      186.0000      161.1557   123534   13.36%

GUB cover cuts applied:  0
Clique cuts applied:  1
Cover cuts applied:  17
Mixed integer rounding cuts applied:  422
Zero-half cuts applied:  20
Gomory fractional cuts applied:  9
Disjunctive cuts applied:  0
Cone linearizations applied:  0

Root node processing (before b&c):
  Real time             =    4.71 sec. (2366.05 ticks)
Parallel b&c, 8 threads:
  Real time             =    5.30 sec. (4262.97 ticks)
  Sync time (average)   =    1.83 sec.
  Wait time (average)   =    0.00 sec.
                          ------------
Total (root+branch&cut) =   10.01 sec. (6629.02 ticks)
Gap: 13.31%
Upper bound: 186
Lower bound: 161.25
End of CPLEX run. Time: 10.0091 seconds

===== New CPLEX run =====
Instance: /home/yorig/tuner/mpils-tests/instances/miplib/medium-1/neos-1456979.mps
Config: /scratch/yorig/mpils-results-grid-seconds-10-no-mip-start/medium-1/2proc/seed-5/8_neos-1456979_seed-5_20260503_052435/iterated_local_search/run_2_worker_1/ils_config_3382617555785010397.prm
========================

Selected objective sense:  MINIMIZE
Selected objective  name:  R6771
Selected RHS        name:  B
Selected bound      name:  BOUND
Version identifier: 22.1.2.0 | 2024-11-26 | 0edbb82fd
CPXPARAM_Threads                                 8
CPXPARAM_Parallel                                1
CPXPARAM_MIP_Cuts_Cliques                        1
CPXPARAM_MIP_Cuts_FlowCovers                     -1
CPXPARAM_MIP_Cuts_Implied                        -1
CPXPARAM_MIP_Cuts_GUBCovers                      2
CPXPARAM_MIP_Limits_GomoryCand                   800
CPXPARAM_MIP_Cuts_Gomory                         1
CPXPARAM_MIP_Cuts_PathCut                        -1
CPXPARAM_MIP_Cuts_MIRCut                         2
CPXPARAM_MIP_Cuts_Disjunctive                    -1
CPXPARAM_Emphasis_MIP                            5
CPXPARAM_TimeLimit                               10
1 of 4 MIP starts provided solutions.
MIP start 'm1' defined initial solution with objective 193.0000.
Tried aggregator 1 time.
MIP Presolve eliminated 175 rows and 10 columns.
MIP Presolve modified 4950 coefficients.
Reduced MIP has 6595 rows, 4595 columns, and 35740 nonzeros.
Reduced MIP has 4245 binaries, 175 generals, 0 SOSs, and 0 indicators.
Presolve time = 0.01 sec. (15.92 ticks)
Probing time = 0.01 sec. (5.74 ticks)
Tried aggregator 1 time.
Detecting symmetries...
MIP Presolve modified 90 coefficients.
Reduced MIP has 6595 rows, 4595 columns, and 35740 nonzeros.
Reduced MIP has 4245 binaries, 175 generals, 0 SOSs, and 0 indicators.
Presolve time = 0.02 sec. (27.10 ticks)
Probing time = 0.01 sec. (5.37 ticks)
Clique table members: 20433.
MIP emphasis: heuristic.
MIP search method: dynamic search.
Parallel mode: deterministic, using up to 8 threads.
Root relaxation solution time = 0.03 sec. (38.64 ticks)

        Nodes                                         Cuts/
   Node  Left     Objective  IInf  Best Integer    Best Bound    ItCnt     Gap

*     0+    0                          193.0000        0.0000           100.00%
      0     0      154.0000   120      193.0000      154.0000      736   20.21%
*     0+    0                          191.0000      154.0000            19.37%
      0     0      154.0000   129      191.0000      Cuts: 77      897   19.37%
      0     0      154.0000   125      191.0000      Cuts: 66     1099   19.37%
      0     0      154.0000   134      191.0000     Cuts: 237     1330   19.37%
*     0+    0                          189.0000      154.0000            18.52%
      0     0  -1.00000e+75     0      189.0000      154.0000     1330   18.52%
*     0+    0                          187.0000      154.0000            17.65%
      0     2      154.0000    72      187.0000      154.0000     1331   17.65%
Elapsed time = 4.91 sec. (2298.29 ticks, tree = 0.02 MB, solutions = 4)
*    21+    1                          186.0000      154.0000            17.20%
     98    72      167.0000    77      186.0000      157.0000     4565   15.59%
    260   218      182.0000    94      186.0000      157.0000    11646   15.59%
    405   334      167.5229    93      186.0000      157.0000    19701   15.59%
    566   444      178.2373   117      186.0000      157.0000    26897   15.59%
    755   586      170.9081    43      186.0000      158.0000    40152   15.05%
    928   696      177.2069    78      186.0000      158.0000    45592   15.05%
   1043   844      183.6817    66      186.0000      159.0000    52713   14.52%
   1236   948      181.9254   110      186.0000      159.0000    58196   14.52%
   1414  1140      178.1205    94      186.0000      160.0000    68689   13.98%
*  2177+ 1736                          185.0000      160.5000            13.24%
   2204  1791      179.3464    82      185.0000      160.5000    96856   13.24%
Elapsed time = 9.27 sec. (5413.98 ticks, tree = 86.98 MB, solutions = 6)

GUB cover cuts applied:  0
Clique cuts applied:  1
Cover cuts applied:  16
Mixed integer rounding cuts applied:  409
Zero-half cuts applied:  20
Gomory fractional cuts applied:  9

Root node processing (before b&c):
  Real time             =    4.79 sec. (2295.53 ticks)
Parallel b&c, 8 threads:
  Real time             =    5.21 sec. (3722.71 ticks)
  Sync time (average)   =    1.51 sec.
  Wait time (average)   =    0.00 sec.
                          ------------
Total (root+branch&cut) =   10.00 sec. (6018.24 ticks)
Gap: 12.97%
Upper bound: 185
Lower bound: 161
End of CPLEX run. Time: 10.0044 seconds

===== New CPLEX run =====
Instance: /home/yorig/tuner/mpils-tests/instances/miplib/medium-1/neos-1456979.mps
Config: /scratch/yorig/mpils-results-grid-seconds-10-no-mip-start/medium-1/2proc/seed-5/8_neos-1456979_seed-5_20260503_052435/iterated_local_search/run_2_worker_1/ils_config_17631380750270746160.prm
========================

Selected objective sense:  MINIMIZE
Selected objective  name:  R6771
Selected RHS        name:  B
Selected bound      name:  BOUND
Version identifier: 22.1.2.0 | 2024-11-26 | 0edbb82fd
CPXPARAM_Threads                                 8
CPXPARAM_Parallel                                1
CPXPARAM_MIP_Cuts_Cliques                        1
CPXPARAM_MIP_Cuts_Implied                        -1
CPXPARAM_MIP_Cuts_GUBCovers                      2
CPXPARAM_MIP_Limits_GomoryCand                   800
CPXPARAM_MIP_Cuts_Gomory                         1
CPXPARAM_MIP_Cuts_PathCut                        -1
CPXPARAM_MIP_Cuts_MIRCut                         2
CPXPARAM_MIP_Cuts_Disjunctive                    -1
CPXPARAM_Emphasis_MIP                            5
CPXPARAM_TimeLimit                               10
CPXPARAM_MIP_Limits_ProbeTime                    60
1 of 4 MIP starts provided solutions.
MIP start 'm1' defined initial solution with objective 193.0000.
Tried aggregator 1 time.
MIP Presolve eliminated 175 rows and 10 columns.
MIP Presolve modified 4950 coefficients.
Reduced MIP has 6595 rows, 4595 columns, and 35740 nonzeros.
Reduced MIP has 4245 binaries, 175 generals, 0 SOSs, and 0 indicators.
Presolve time = 0.01 sec. (15.92 ticks)
Probing time = 0.03 sec. (33.51 ticks)
Tried aggregator 1 time.
Detecting symmetries...
MIP Presolve modified 90 coefficients.
Reduced MIP has 6595 rows, 4595 columns, and 35740 nonzeros.
Reduced MIP has 4245 binaries, 175 generals, 0 SOSs, and 0 indicators.
Presolve time = 0.02 sec. (27.11 ticks)
Probing time = 0.07 sec. (33.23 ticks)
Clique table members: 20433.
MIP emphasis: heuristic.
MIP search method: dynamic search.
Parallel mode: deterministic, using up to 8 threads.
Root relaxation solution time = 0.04 sec. (38.64 ticks)

        Nodes                                         Cuts/
   Node  Left     Objective  IInf  Best Integer    Best Bound    ItCnt     Gap

*     0+    0                          193.0000        0.0000           100.00%
      0     0      154.0000   120      193.0000      154.0000      736   20.21%
*     0+    0                          191.0000      154.0000            19.37%
      0     0      154.0000   129      191.0000      Cuts: 77      897   19.37%
      0     0      154.0000   125      191.0000      Cuts: 66     1099   19.37%
      0     0      154.0000   134      191.0000     Cuts: 237     1330   19.37%
*     0+    0                          189.0000      154.0000            18.52%
      0     0  -1.00000e+75     0      189.0000      154.0000     1330   18.52%
*     0+    0                          187.0000      154.0000            17.65%
      0     2      154.0000    72      187.0000      154.0000     1331   17.65%
Elapsed time = 4.88 sec. (2368.84 ticks, tree = 0.02 MB, solutions = 4)
*    21+    1                          186.0000      154.0000            17.20%
     98    72      167.0000    77      186.0000      157.0000     4565   15.59%
    260   218      182.0000    94      186.0000      157.0000    11646   15.59%
    405   334      167.5229    93      186.0000      157.0000    19701   15.59%
    566   444      178.2373   117      186.0000      157.0000    26897   15.59%
    755   586      170.9081    43      186.0000      158.0000    40152   15.05%
    928   696      177.2069    78      186.0000      158.0000    45592   15.05%
   1043   844      183.6817    66      186.0000      159.0000    52713   14.52%
   1236   948      181.9254   110      186.0000      159.0000    58196   14.52%
   1414  1140      178.1205    94      186.0000      160.0000    68689   13.98%
*  2166+ 1735                          185.0000      160.5000            13.24%
   2198  1782      167.5000   117      185.0000      160.5000    96543   13.24%
Elapsed time = 9.79 sec. (5482.11 ticks, tree = 86.52 MB, solutions = 6)

GUB cover cuts applied:  0
Clique cuts applied:  1
Cover cuts applied:  16
Mixed integer rounding cuts applied:  395
Zero-half cuts applied:  20
Gomory fractional cuts applied:  9

Root node processing (before b&c):
  Real time             =    4.73 sec. (2366.22 ticks)
Parallel b&c, 8 threads:
  Real time             =    5.28 sec. (3346.40 ticks)
  Sync time (average)   =    2.10 sec.
  Wait time (average)   =    0.00 sec.
                          ------------
Total (root+branch&cut) =   10.01 sec. (5712.62 ticks)
Gap: 12.97%
Upper bound: 185
Lower bound: 161
End of CPLEX run. Time: 10.0065 seconds

===== New CPLEX run =====
Instance: /home/yorig/tuner/mpils-tests/instances/miplib/medium-1/neos-1456979.mps
Config: /scratch/yorig/mpils-results-grid-seconds-10-no-mip-start/medium-1/2proc/seed-5/8_neos-1456979_seed-5_20260503_052435/iterated_local_search/run_2_worker_1/ils_config_13655739228798082140.prm
========================

Selected objective sense:  MINIMIZE
Selected objective  name:  R6771
Selected RHS        name:  B
Selected bound      name:  BOUND
Version identifier: 22.1.2.0 | 2024-11-26 | 0edbb82fd
CPXPARAM_Threads                                 8
CPXPARAM_Parallel                                1
CPXPARAM_MIP_Cuts_Cliques                        1
CPXPARAM_MIP_Cuts_FlowCovers                     -1
CPXPARAM_MIP_Cuts_Implied                        -1
CPXPARAM_MIP_Cuts_GUBCovers                      2
CPXPARAM_MIP_Limits_GomoryCand                   800
CPXPARAM_MIP_Cuts_Gomory                         1
CPXPARAM_MIP_Cuts_PathCut                        -1
CPXPARAM_MIP_Cuts_MIRCut                         2
CPXPARAM_MIP_Cuts_Disjunctive                    3
CPXPARAM_Emphasis_MIP                            5
CPXPARAM_TimeLimit                               10
CPXPARAM_MIP_Limits_ProbeTime                    60
1 of 4 MIP starts provided solutions.
MIP start 'm1' defined initial solution with objective 193.0000.
Tried aggregator 1 time.
MIP Presolve eliminated 175 rows and 10 columns.
MIP Presolve modified 4950 coefficients.
Reduced MIP has 6595 rows, 4595 columns, and 35740 nonzeros.
Reduced MIP has 4245 binaries, 175 generals, 0 SOSs, and 0 indicators.
Presolve time = 0.01 sec. (15.92 ticks)
Probing time = 0.03 sec. (33.51 ticks)
Tried aggregator 1 time.
Detecting symmetries...
MIP Presolve modified 90 coefficients.
Reduced MIP has 6595 rows, 4595 columns, and 35740 nonzeros.
Reduced MIP has 4245 binaries, 175 generals, 0 SOSs, and 0 indicators.
Presolve time = 0.02 sec. (27.11 ticks)
Probing time = 0.04 sec. (33.23 ticks)
Clique table members: 20433.
MIP emphasis: heuristic.
MIP search method: dynamic search.
Parallel mode: deterministic, using up to 8 threads.
Root relaxation solution time = 0.02 sec. (38.64 ticks)

        Nodes                                         Cuts/
   Node  Left     Objective  IInf  Best Integer    Best Bound    ItCnt     Gap

*     0+    0                          193.0000        0.0000           100.00%
      0     0      154.0000   120      193.0000      154.0000      736   20.21%
*     0+    0                          187.0000      154.0000            17.65%
      0     0      154.0000   127      187.0000      Cuts: 81      898   17.65%
      0     0      154.0000   123      187.0000      Cuts: 72     1056   17.65%
      0     0      154.0000   144      187.0000     Cuts: 173     1259   17.65%
*     0+    0                          183.0000      154.0000            15.85%
      0     2      154.0000    93      183.0000      157.0000     1259   14.21%
Elapsed time = 7.98 sec. (6398.37 ticks, tree = 0.02 MB, solutions = 3)
    115    87      170.0000   113      183.0000      157.0000     5990   14.21%
    314   216      172.0903    74      183.0000      157.0000    13530   14.21%
    435   301      180.7985    63      183.0000      157.0000    19645   14.21%
    608   426      162.4213    92      183.0000      157.0000    27730   14.21%
    812   607      180.0889    96      183.0000      158.0000    35581   13.66%
    992   753      163.5000   120      183.0000      158.0000    41319   13.66%
   1203   899        cutoff            183.0000      158.0000    47117   13.66%

GUB cover cuts applied:  0
Clique cuts applied:  1
Cover cuts applied:  11
Mixed integer rounding cuts applied:  295
Zero-half cuts applied:  21
Gomory fractional cuts applied:  7
Disjunctive cuts applied:  6
Cone linearizations applied:  0

Root node processing (before b&c):
  Real time             =    7.74 sec. (6395.43 ticks)
Parallel b&c, 8 threads:
  Real time             =    2.27 sec. (1860.77 ticks)
  Sync time (average)   =    0.89 sec.
  Wait time (average)   =    0.00 sec.
                          ------------
Total (root+branch&cut) =   10.00 sec. (8256.20 ticks)
Gap: 13.66%
Upper bound: 183
Lower bound: 158
End of CPLEX run. Time: 10.0043 seconds
